9539.16,63.76,79.09
10417.79,58.38,72.42
10092.12,60.27,74.76
11240.21,54.11,67.12
10409.37,58.43,72.48
9791.87,62.11,77.05
9537.55,63.77,79.11
9991.66,60.87,75.51
10108.13,60.17,74.64
9828.24,61.88,76.77
10905.44,55.77,69.18
10452.85,58.19,72.18
10493.24,57.96,71.9
9697.68,62.72,77.8
8952.42,67.94,84.28
10008.45,60.77,75.39
9667.31,62.91,78.05
10954.02,55.52,68.88
10097.37,60.23,74.72
10005.85,60.79,75.4
